<?xml version="1.0" encoding="UTF-8"?>
<xrdMeasurements xmlns="http://www.xrdml.com/XRDMeasurement/1.7" xmlns:xsi="http://www.w3.org/2001/XMLSchema-instance" xsi:schemaLocation="http://www.xrdml.com/XRDMeasurement/1.7 http://www.xrdml.com/XRDMeasurement/1.7/XRDMeasurement.xsd" status="Aborted">
	<sample type="To be analyzed">
		<id></id>
		<name></name>
		<preparedBy></preparedBy>
	</sample>
	<xrdMeasurement measurementType="Scan" status="Aborted" sampleMode="Reflection">
		<usedWavelength intended="K-Alpha 1">
			<kAlpha1 unit="Angstrom">1.5405980</kAlpha1>
			<kAlpha2 unit="Angstrom">1.5444260</kAlpha2>
			<kBeta unit="Angstrom">1.3922500</kBeta>
			<ratioKAlpha2KAlpha1>0.5000</ratioKAlpha2KAlpha1>
		</usedWavelength>
		<incidentBeamPath>
			<radius unit="mm">240.00</radius>
			<xRayTube id="1010048" name="Empyrean Cu LFF HR (9430 033 7310x) DK419649">
				<tension unit="kV">45.0</tension>
				<current unit="mA">40.0</current>
				<anodeMaterial>Cu</anodeMaterial>
				<focus type="Line">
					<length unit="mm">12.0</length>
					<width unit="mm">0.4</width>
					<takeOffAngle unit="deg">2.2</takeOffAngle>
				</focus>
			</xRayTube>
			<xRayMirror id="27080001" name="Inc. Beam Cu W/Si (hybrid MPD)" hybrid="true">
				<crystal type="Graded" shape="Parabolic">W/Si</crystal>
				<acceptanceAngle unit="deg">0.800</acceptanceAngle>
				<length unit="mm">55.3</length>
			</xRayMirror>
			<monochromator id="23090002" name="Hybrid monochr. 2xGe(220) for Cu" hybrid="true">
				<crystal type="Asymmetric" shape="Flat">Ge</crystal>
				<numberOfReflections>2</numberOfReflections>
				<hkl>
					<h>2</h>
					<k>2</k>
					<l>0</l>
				</hkl>
			</monochromator>
			<divergenceSlit id="22010011" name="Fixed slit 1/32°" xsi:type="fixedDivergenceSlitType">
				<distanceToSample unit="mm">140.00</distanceToSample>
				<height unit="mm">0.05</height>
			</divergenceSlit>
		</incidentBeamPath>
		<diffractedBeamPath>
			<radius unit="mm">240.00</radius>
			<antiScatterSlit id="22090010" name="AS slit 8.0 mm (PIXcel)" xsi:type="fixedAntiScatterSlitType">
				<height unit="mm">8.00</height>
			</antiScatterSlit>
			<sollerSlit id="21020003" name="Large Soller slits 0.04 rad.">
				<opening unit="rad">0.0400</opening>
			</sollerSlit>
			<detector id="7010020" name="PIXcel3D-Medipix3 1x1 detector" xsi:type="areaDetectorType">
				<phd unit="%">
					<lowerLevel>25.0</lowerLevel>
					<upperLevel>70.0</upperLevel>
				</phd>
				<mode>Receiving slit</mode>
				<activeChannelsEquatorial>3</activeChannelsEquatorial>
				<activeChannelsAxial>255</activeChannelsAxial>
				<pitchEquatorial unit="mm">0.05500</pitchEquatorial>
				<pitchAxial unit="mm">0.05500</pitchAxial>
				<readOutPeriod unit="seconds">0.050</readOutPeriod>
			</detector>
		</diffractedBeamPath>
		<scan appendNumber="0" mode="Continuous" scanAxis="2Theta-Omega" status="Not finished">
			<header>
				<startTimeStamp>2018-11-14T01:10:20-05:00</startTimeStamp>
				<endTimeStamp>2018-11-14T01:13:39-05:00</endTimeStamp>
				<author>
					<name>User</name>
				</author>
				<source>
					<applicationSoftware version="5.5a">Data Collector</applicationSoftware>
					<instrumentControlSoftware version="7.9j 20171025">EMPYREAN</instrumentControlSoftware>
					<instrumentID>0000000011214965</instrumentID>
				</source>
			</header>
			<scanAxisCenter>
				<position axis="2Theta" unit="deg">62.7515</position>
				<position axis="Omega" unit="deg">31.3758</position>
			</scanAxisCenter>
			<reflection>
				<hkl>
					<h>0</h>
					<k>0</k>
					<l>0</l>
				</hkl>
			</reflection>
			<dataPoints>
				<positions axis="2Theta" unit="deg">
					<startPosition>0.7715</startPosition>
					<endPosition>79.1315</endPosition>
				</positions>
				<positions axis="Omega" unit="deg">
					<startPosition>0.3858</startPosition>
					<endPosition>39.5658</endPosition>
				</positions>
				<positions axis="Phi" unit="deg">
					<commonPosition>90.00</commonPosition>
				</positions>
				<positions axis="Chi" unit="deg">
					<commonPosition>0.00</commonPosition>
				</positions>
				<positions axis="Z" unit="mm">
					<commonPosition>9.136</commonPosition>
				</positions>
				<commonCountingTime unit="seconds">0.044</commonCountingTime>
				<intensities unit="counts">6571 6485 6642 6290 6160 6129 5746 5475 5022 4717 4393 4033 3443 3092 2590 2270 1839 1514 1186 905 786 593 394 354 277 237 236 226 208 219 262 271 290 355 329 362 383 386 370 437 353 339 371 350 295 325 287 265 210 215 194 156 130 135 118 90 81 63 53 42 26 34 28 36 39 38 42 40 49 62 58 62 53 68 81 71 74 95 94 64 85 69 68 77 67 64 71 58 60 70 44 38 45 46 33 23 26 34 16 23 21 20 16 21 17 21 16 9 19 25 27 18 16 33 21 18 35 35 24 30 23 32 26 27 16 20 27 13 25 30 19 12 14 14 16 17 17 12 13 10 11 5 6 6 8 8 4 6 9 8 9 4 3 10 8 13 11 7 10 20 12 6 19 12 20 12 7 13 7 8 9 19 9 7 11 4 6 10 2 8 4 5 6 4 4 8 6 2 3 6 6 4 5 5 3 3 5 6 11 2 7 8 8 8 9 6 10 6 10 4 6 6 10 10 8 1 5 7 4 4 3 5 5 5 8 6 3 6 7 8 3 2 9 2 1 1 5 5 3 6 7 2 6 6 1 7 6 4 7 4 6 6 3 7 11 1 4 6 3 5 6 5 1 5 6 1 3 2 1 6 1 5 3 0 4 4 2 2 3 3 4 3 3 4 2 2 3 2 4 3 6 2 5 1 7 1 5 7 4 8 4 1 1 4 2 6 4 5 0 5 5 2 1 3 4 4 4 3 2 4 2 3 4 6 3 3 5 2 5 4 4 1 5 6 1 3 3 3 5 4 2 3 14 5 7 2 0 9 2 3 3 2 7 2 4 4 5 4 4 4 3 3 3 5 4 1 6 3 5 3 3 5 3 1 4 4 3 6 5 3 3 2 1 2 2 4 3 5 5 2 5 4 4 2 2 3 1 2 4 0 3 2 1 3 1 3 5 2 2 3 3 2 3 3 2 3 4 3 2 2 5 6 1 1 2 2 1 3 3 2 2 3 3 4 6 3 2 3 2 2 2 5 2 5 5 0 5 4 1 1 1 1 1 5 2 4 4 2 1 3 5 4 3 1 2 2 3 5 0 1 3 2 1 1 2 2 3 4 4 8 2 2 3 2 3 1 1 8 2 4 4 4 1 2 2 1 4 0 5 1 4 0 1 2 4 3 2 3 4 6 0 3 1 2 2 2 3 1 3 5 4 3 0 1 2 3 3 1 1 3 2 5 2 2 2 3 2 2 3 1 4 4 3 1 2 0 1 3 3 2 1 4 2 4 5 1 4 1 5 2 1 3 2 1 5 3 3 1 2 1 1 2 2 0 0 2 2 1 2 5 1 1 1 4 7 0 1 3 0 2 3 3 3 1 3 4 3 7 1 1 4 1 1 5 5 4 0 4 6 3 2 4 1 0 1 6 5 1 3 3 1 1 2 3 3 5 3 3 2 5 1 0 1 3 4 4 3 3 0 2 1 0 1 2 4 4 2 2 2 3 5 3 2 2 0 0 1 2 4 2 4 3 1 2 3 4 3 2 3 3 2 4 4 3 1 2 0 1 3 3 0 3 4 2 1 3 3 2 1 1 2 2 0 4 0 2 0 4 1 3 5 2 3 2 1 2 3 0 2 2 0 1 4 1 0 3 1 1 1 2 3 0 5 4 2 2 4 4 1 4 1 1 4 2 2 4 4 1 4 5 1 1 3 1 4 0 2 2 4 3 5 1 1 4 1 0 0 1 4 3 5 4 2 1 4 5 3 2 1 2 1 3 3 2 3 3 6 2 1 1 3 2 1 0 2 5 4 1 5 4 4 1 2 6 1 0 3 0 3 3 3 1 3 3 3 2 1 2 2 3 4 2 4 1 2 5 3 1 1 0 2 1 1 1 3 2 1 4 1 4 2 1 1 1 4 4 0 2 2 2 2 6 1 2 2 1 3 5 0 1 1 1 6 0 2 2 0 1 1 4 1 2 1 3 2 0 4 1 2 6 0 3 2 3 4 1 1 2 0 5 3 1 2 2 1 2 2 3 1 1 2 5 2 3 1 3 1 3 2 0 1 3 1 0 3 3 3 1 1 1 3 4 3 3 3 1 1 0 1 2 3 2 1 2 3 3 1 3 4 3 2 6 1 2 1 1 2 0 3 2 2 2 3 1 2 6 2 1 1 3 4 1 0 2 2 1 2 1 3 1 1 2 1 3 2 2 0 0 1 4 0 2 3 1 0 1 1 4 0 1 1 1 1 2 3 4 3 1 0 0 1 5 1 2 1 0 2 1 2 0 2 1 0 3 1 1 2 1 1 0 1 2 1 3 1 0 1 4 0 2 0 5 0 0 2 1 2 2 1 2 1 1 0 1 0 2 2 3 1 3 0 1 1 2 0 3 1 1 1 3 4 2 1 0 3 0 2 3 2 0 3 2 1 0 2 1 2 3 3 2 1 2 2 3 3 2 0 1 4 0 1 1 2 0 2 1 1 0 0 0 2 2 1 2 4 2 0 2 0 1 1 3 1 3 0 0 0 1 1 1 6 0 1 0 0 1 0 2 4 1 1 0 0 0 0 0 2 3 0 1 0 0 3 0 0 1 1 2 2 1 0 3 1 2 4 2 0 5 0 1 3 0 2 1 0 2 0 2 3 1 0 0 2 1 1 1 2 3 1 0 4 2 0 0 2 1 0 1 1 2 3 1 0 1 0 0 1 1 0 0 1 3 1 3 3 0 3 1 2 1 2 1 2 3 1 1 1 0 0 3 2 0 0 0 1 1 0 2 1 4 0 2 1 0 0 0 0 1 3 1 2 3 2 1 1 1 1 0 1 1 2 1 4 2 4 1 0 1 1 1 3 0 0 4 0 2 0 4 0 2 1 2 1 1 3 3 1 1 2 4 0 3 1 0 1 0 2 0 2 2 1 2 1 2 0 0 2 1 0 1 0 0 2 2 0 0 0 1 0 0 2 0 0 0 5 2 0 2 2 0 0 2 3 1 1 0 1 1 2 0 1 1 1 1 0 0 0 0 1 2 1 1 3 0 2 2 3 2 0 3 2 0 1 0 2 1 3 1 0 3 0 1 1 0 0 0 0 0 1 1 0 0 0 2 2 2 0 3 1 4 3 0 1 1 0 1 1 2 3 4 0 2 3 0 2 3 1 1 3 2 4 0 0 1 2 1 1 1 1 1 1 0 0 4 0 0 1 1 1 1 0 1 0 1 1 0 1 0 3 1 4 0 0 1 0 4 1 0 1 0 1 1 2 3 0 0 0 0 2 1 0 1 0 1 0 1 0 1 0 2 1 0 1 0 1 2 0 0 1 0 0 2 2 0 0 0 0 0 1 1 1 2 3 1 0 1 0 0 0 1 2 2 3 1 0 0 1 0 1 0 1 0 1 1 1 0 0 1 2 1 0 0 3 0 2 1 0 0 0 1 1 1 1 3 1 0 1 2 1 2 1 0 0 1 3 1 1 0 2 0 3 2 1 1 1 1 1 0 0 2 2 0 1 0 0 0 0 2 1 0 1 0 1 1 0 0 0 2 1 0 1 0 1 1 1 1 0 0 1 1 0 0 1 1 0 0 0 1 2 0 3 4 2 1 0 0 3 1 3 3 0 1 0 0 2 0 1 1 0 0 1 3 0 1 1 0 1 1 0 0 0 1 3 0 0 1 1 1 0 1 0 2 3 2 0 0 2 2 0 1 1 1 3 1 1 2 1 1 0 2 1 1 1 1 0 0 0 1 3 0 1 1 1 0 1 0 0 0 1 2 2 1 1 2 0 0 2 2 2 1 0 0 1 0 0 0 1 2 0 1 1 0 0 3 0 2 3 1 1 1 0 0 3 0 1 1 0 0 1 0 1 1 0 0 1 0 1 0 0 2 0 1 0 1 2 1 2 2 1 1 1 0 0 1 2 2 2 0 2 0 0 0 1 2 0 1 2 0 0 1 0 1 2 0 1 1 2 1 2 2 0 1 1 0 0 0 0 0 0 3 1 1 0 0 1 0 0 1 1 2 1 0 1 0 1 1 1 1 0 2 1 0 1 0 2 0 1 1 1 0 0 1 0 0 2 1 2 1 2 0 1 0 0 4 2 2 0 1 5 3 1 0 0 1 0 1 2 1 3 0 3 1 0 2 0 0 1 0 0 0 1 0 1 0 0 1 1 1 1 0 2 3 3 0 0 1 0 1 0 1 0 1 1 0 0 1 2 2 0 0 0 0 0 0 0 0 1 0 2 0 2 1 0 2 0 0 1 0 0 1 0 1 0 0 1 2 0 1 1 1 0 1 2 2 1 2 0 1 0 0 2 0 3 0 0 0 1 1 1 0 1 3 2 0 1 0 0 1 0 2 0 1 1 0 1 0 1 1 0 0 0 1 0 2 0 1 1 0 2 1 1 0 0 1 0 0 1 1 2 1 1 1 1 0 0 1 0 2 1 2 1 0 0 0 0 2 1 0 2 1 1 0 0 0 2 1 0 0 2 1 1 1 2 0 2 1 1 1 1 2 0 0 1 1 1 0 1 0 0 0 1 1 1 0 0 2 0 1 0 0 1 0 1 0 1 0 0 1 2 0 1 2 0 0 1 0 1 0 1 1 0 1 0 1 0 2 2 1 0 0 0 1 2 1 4 0 0 3 1 0 1 0 0 2 1 1 2 0 1 0 0 1 1 1 1 1 0 0 2 0 1 0 0 0 0 0 0 0 2 1 0 0 0 2 1 0 1 2 0 1 1 0 1 1 1 0 1 2 0 2 2 0 1 0 1 1 1 1 0 1 2 1 2 3 1 1 1 0 0 0 0 0 0 0 0 0 2 2 1 0 0 0 0 0 0 0 0 1 0 0 0 0 0 2 1 0 3 0 2 2 0 0 0 0 0 1 0 0 0 1 1 1 1 0 2 0 0 0 0 0 0 1 0 1 0 2 2 0 2 0 1 0 0 0 0 1 0 2 0 0 0 2 2 0 0 2 0 0 1 0 0 0 0 2 1 1 0 1 0 0 1 0 0 1 1 1 1 2 1 0 1 0 0 0 2 1 1 0 2 2 0 0 2 1 0 4 1 0 0 0 0 2 1 0 0 0 0 1 1 1 3 2 0 1 0 0 0 2 1 0 1 1 1 0 0 0 1 0 2 0 1 0 1 0 0 0 1 1 0 1 5 0 1 2 1 0 0 2 0 2 2 1 3 0 0 0 1 1 0 0 0 0 2 1 2 0 0 0 0 0 1 1 0 1 0 0 0 0 0 0 0 0 1 2 1 2 0 0 0 0 0 2 1 1 0 0 0 2 0 1 0 0 1 0 1 1 1 1 1 0 2 0 1 1 0 0 0 1 0 0 0 0 0 0 0 1 1 0 0 1 0 0 2 0 1 0 1 1 1 1 0 1 0 0 0 1 2 1 0 1 0 2 3 4 2 1 0 0 3 1 0 0 0 1 0 0 1 1 1 1 0 0 2 1 0 0 0 0 0 2 0 1 0 2 0 0 3 3 1 2 2 0 0 1 1 0 1 0 0 0 1 1 0 1 0 2 0 0 0 1 0 1 1 0 2 1 0 0 0 1 0 1 0 1 0 0 1 0 1 0 1 2 0 1 0 2 0 2 2 0 0 2 0 0 1 1 2 1 2 2 0 2 0 1 1 0 0 0 0 0 0 0 0 0 2 1 0 0 0 1 1 0 1 0 1 3 0 1 0 1 1 0 0 0 1 0 1 0 0 0 1 1 0 0 2 0 1 1 0 2 0 0 0 0 1 0 1 1 0 1 3 0 1 1 0 0 1 0 0 0 0 1 1 2 0 0 0 0 0 0 2 0 1 1 0 0 2 2 1 1 0 0 0 0 1 0 1 0 0 0 0 1 1 0 0 0 0 1 1 4 0 2 2 1 0 1 0 2 2 0 1 1 0 1 2 2 1 1 0 0 0 1 1 1 0 0 1 0 0 0 1 1 1 0 2 0 1 0 0 0 0 0 0 1 0 0 1 0 0 0 1 0 0 0 2 0 1 0 0 0 0 0 0 0 0 0 0 1 0 0 1 0 0 1 0 0 0 0 2 1 0 2 1 2 1 2 2 0 0 1 0 0 0 1 4 0 0 1 1 0 0 2 0 2 1 0 0 1 0 0 1 2 1 0 0 2 0 2 3 0 0 2 1 0 0 0 0 0 0 2 3 1 1 2 2 2 0 0 0 1 1 1 2 1 1 1 1 2 1 1 1 0 3 0 0 0 1 1 0 1 0 2 0 0 1 0 0 0 2 1 0 0 0 2 0 1 1 0 0 0 1 0 0 1 1 1 0 0 1 1 0 2 0 0 1 2 0 0 2 3 2 0 2 1 1 2 1 0 0 1 0 1 1 2 2 2 0 1 0 5 0 2 0 3 4 5 1 3 6 3 7 5 5 5 5 6 6 7 3 2 9 8 7 7 12 7 10 10 12 15 11 14 11 9 11 17 10 15 16 13 11 16 19 14 16 13 21 16 17 14 13 22 20 21 22 22 20 23 18 31 21 32 32 33 20 26 24 23 28 21 24 21 31 23 14 25 28 29 20 26 28 26 24 26 28 21 32 41 28 27 27 23 32 31 29 32 32 38 23 40 32 26 34 28 21 32 35 26 38 28 24 22 25 31 29 26 28 31 39 20 24 24 32 25 25 30 27 28 20 20 27 30 30 28 27 31 25 20 22 24 29 21 23 22 20 26 23 21 29 21 25 27 20 21 15 23 24 17 15 19 15 22 26 30 23 10 22 10 6 13 22 19 13 17 11 13 20 14 23 14 12 20 12 6 23 14 15 12 5 12 11 7 10 9 12 8 10 8 7 8 5 5 6 15 8 9 12 6 6 11 7 5 9 8 7 7 11 7 6 10 5 2 8 5 7 2 4 7 5 6 8 10 7 5 8 4 10 4 7 6 5 9 7 9 8 7 13 5 7 5 6 7 11 7 8 6 10 12 8 8 19 18 18 25 17 22 23 24 29 51 51 61 71 98 123 224 467 3625 115458 124434 2429 397 190 124 72 50 43 22 20 13 12 6 21 7 9 5 10 2 5 7 6 5 2 4 2 3 2 4 4 2 1 1 1 3 3 1 2 1 3 4 1 0 0 1 0 0 2 4 0 0 1 2 2 1 0 0 0 0 1 1 0 1 1 0 2 0 1 0 1 1 0 1 1 1 2 0 0 2 2 0 1 0 1 1 0 1 0 1 0 0 2 1 1 2 0 1 1 1 0 1 0 0 0 0 1 0 1 0 0 1 0 0 1 1 1 0 1 0 0 0 0 1 0 1 0 2 2 2 0 0 0 0 1 1 1 1 0 0 0 0 0 0 1 3 1 1 1 1 1 3 0 0 0 0 0 1 1 0 0 0 1 1 0 1 0 0 0 0 1 0 0 0 1 0 2 4 0 0 0 0 2 0 0 0 1 0 1 1 0 0 3 0 1 0 0 1 2 0 0 0 0 0 2 2 1 0 0 0 0 1 0 1 0 0 0 0 0 1 1 0 0 0 0 1 0 0 0 1 0 1 1 1 0 0 0 1 0 0 2 1 0 0 0 0 0 1 0 0 0 0 0 2 0 0 1 0 1 3 0 1 0 0 2 2 0 1 0 1 1 2 1 2 1 1 0 0 1 2 1 1 0 0 0 0 1 2 0 0 0 0 0 0 0 0 0 1 1 0 0 0 0 0 1 0 0 0 1 2 0 1 1 0 0 0 0 1 0 1 1 0 0 0 0 0 0 1 1 1 0 0 0 1 1 1 0 0 0 0 0 0 2 1 0 0 0 0 1 0 3 1 0 0 1 1 0 0 0 0 0 0 0 0 0 0 0 0 0 2 0 3 0 0 0 1 1 1 0 1 0 1 1 1 1 0 0 2 0 0 1 0 2 0 0 0 0 0 0 1 1 2 0 1 0 0 0 1 1 1 1 0 1 1 0 2 1 2 0 0 1 1 1 0 1 1 0 0 1 1 1 1 0 0 1 1 2 0 3 0 0 1 2 2 3 2 3 1 0 2 1 1 0 0 0 1 1 1 1 0 1 0 1 0 2 1 0 0 0 1 0 2 0 3 0 0 0 0 0 2 0 0 0 2 1 0 1 0 1 0 0 0 2 0 0 0 1 0 1 1 0 2 0 1 2 0 0 0 0 2 0 1 2 0 0 1 1 1 0 1 1 1 2 0 0 0 1 0 1 0 0 0 1 1 0 0 0 1 0 0 1 0 0 0 1 1 1 0 0 1 0 0 1 0 0 3 0 1 1 1 1 0 0 0 0 1 0 0 0 0 1 0 0 1 0 1 1 0 0 1 0 0 0 2 1 1 0 1 1 2 1 1 0 1 0 0 0 1 0 0 1 0 0 0 0 1 1 0 1 0 0 1 0 0 2 1 0 0 2 0 0 2 0 1 0 0 0 1 1 0 0 0 0 1 0 0 0 0 0 0 0 0 0 0 0 0 2 1 1 0 1 1 1 0 0 2 1 2 1 0 1 0 2 1 1 1 0 1 2 0 0 0 2 3 0 1 1 1 1 0 0 0 1 0 1 1 1 0 1 0 0 3 1 1 0 1 1 0 0 1 1 0 0 2 0 4 0 1 1 0 1 0 0 0 0 0 0 1 1 1 0 0 0 1 2 0 3 0 0 0 1 0 1 0 1 0 0 0 0 0 0 0 1 2 0 0 0 0 1 1 0 0 0 0 2 2 1 0 2 0 1 0 0 2 2 0 0 0 0 3 1 0 0 0 0 0 0 0 2 0 0 1 1 1 0 0 0 0 0 0 1 0 1 0 0 0 1 1 1 1 0 1 0 1 1 0 0 0 0 0 1 0 0 1 0 0 1 1 3 0 1</intensities>
			</dataPoints>
		</scan>
	</xrdMeasurement>
</xrdMeasurements>
